p cnf 23 110
1 2 3 4 5 0
1 2 3 -4 6 0
1 2 -3 4 6 0
1 2 -3 -4 6 0
1 -2 3 4 6 0
1 -2 3 -4 6 0
1 -2 -3 4 6 0
1 -2 -3 -4 6 0
-1 2 3 4 5 0
-1 2 3 -4 7 0
8 9 10 11 1 2 3 4 12 0
8 9 10 11 1 2 3 -4 15 0
8 9 10 11 1 2 -3 4 15 0
8 9 10 11 1 2 -3 -4 13 0
8 9 10 11 1 -2 3 4 16 0
8 9 10 11 1 -2 3 -4 13 0
8 9 10 11 1 -2 -3 4 13 0
8 9 10 11 1 -2 -3 -4 13 0
8 9 10 11 -1 2 3 4 13 0
8 9 10 11 -1 2 3 -4 13 0
8 9 10 -11 1 2 3 4 14 0
8 9 10 -11 1 2 3 -4 16 0
8 9 10 -11 1 2 -3 4 16 0
8 9 10 -11 1 2 -3 -4 16 0
8 9 10 -11 1 -2 3 4 13 0
8 9 10 -11 1 -2 3 -4 15 0
8 9 10 -11 1 -2 -3 4 13 0
8 9 10 -11 1 -2 -3 -4 13 0
8 9 10 -11 -1 2 3 4 13 0
8 9 10 -11 -1 2 3 -4 13 0
8 9 -10 11 1 2 3 4 17 0
8 9 -10 11 1 2 3 -4 15 0
8 9 -10 11 1 2 -3 4 13 0
8 9 -10 11 1 2 -3 -4 15 0
8 9 -10 11 1 -2 3 4 15 0
8 9 -10 11 1 -2 3 -4 13 0
8 9 -10 11 1 -2 -3 4 18 0
8 9 -10 11 1 -2 -3 -4 18 0
8 9 -10 11 -1 2 3 4 19 0
8 9 -10 11 -1 2 3 -4 13 0
8 9 -10 -11 1 2 3 4 19 0
8 9 -10 -11 1 2 3 -4 15 0
8 9 -10 -11 1 2 -3 4 20 0
8 9 -10 -11 1 2 -3 -4 13 0
8 9 -10 -11 1 -2 3 4 18 0
8 9 -10 -11 1 -2 3 -4 13 0
8 9 -10 -11 1 -2 -3 4 16 0
8 9 -10 -11 1 -2 -3 -4 13 0
8 9 -10 -11 -1 2 3 4 19 0
8 9 -10 -11 -1 2 3 -4 13 0
8 -9 10 11 1 2 3 4 13 0
8 -9 10 11 1 2 3 -4 13 0
8 -9 10 11 1 2 -3 4 16 0
8 -9 10 11 1 2 -3 -4 15 0
8 -9 10 11 1 -2 3 4 16 0
8 -9 10 11 1 -2 3 -4 16 0
8 -9 10 11 1 -2 -3 4 15 0
8 -9 10 11 1 -2 -3 -4 13 0
8 -9 10 11 -1 2 3 4 19 0
8 -9 10 11 -1 2 3 -4 13 0
8 -9 10 -11 1 2 3 4 19 0
8 -9 10 -11 1 2 3 -4 13 0
8 -9 10 -11 1 2 -3 4 13 0
8 -9 10 -11 1 2 -3 -4 20 0
8 -9 10 -11 1 -2 3 4 16 0
8 -9 10 -11 1 -2 3 -4 18 0
8 -9 10 -11 1 -2 -3 4 18 0
8 -9 10 -11 1 -2 -3 -4 16 0
8 -9 10 -11 -1 2 3 4 19 0
8 -9 10 -11 -1 2 3 -4 21 0
8 -9 -10 11 1 2 3 4 13 0
8 -9 -10 11 1 2 3 -4 18 0
8 -9 -10 11 1 2 -3 4 16 0
8 -9 -10 11 1 2 -3 -4 18 0
8 -9 -10 11 1 -2 3 4 18 0
8 -9 -10 11 1 -2 3 -4 16 0
8 -9 -10 11 1 -2 -3 4 18 0
8 -9 -10 11 1 -2 -3 -4 16 0
8 -9 -10 11 -1 2 3 4 13 0
8 -9 -10 11 -1 2 3 -4 21 0
8 -9 -10 -11 1 2 3 4 13 0
8 -9 -10 -11 1 2 3 -4 13 0
8 -9 -10 -11 1 2 -3 4 13 0
8 -9 -10 -11 1 2 -3 -4 13 0
8 -9 -10 -11 1 -2 3 4 16 0
8 -9 -10 -11 1 -2 3 -4 18 0
8 -9 -10 -11 1 -2 -3 4 18 0
8 -9 -10 -11 1 -2 -3 -4 16 0
8 -9 -10 -11 -1 2 3 4 23 0
8 -9 -10 -11 -1 2 3 -4 21 0
-8 9 10 11 1 2 3 4 13 0
-8 9 10 11 1 2 3 -4 13 0
-8 9 10 11 1 2 -3 4 13 0
-8 9 10 11 1 2 -3 -4 13 0
-8 9 10 11 1 -2 3 4 13 0
-8 9 10 11 1 -2 3 -4 18 0
-8 9 10 11 1 -2 -3 4 16 0
-8 9 10 11 1 -2 -3 -4 16 0
-8 9 10 11 -1 2 3 4 14 0
-8 9 10 11 -1 2 3 -4 22 0
-8 9 10 -11 1 2 3 4 13 0
-8 9 10 -11 1 2 3 -4 18 0
-8 9 10 -11 1 2 -3 4 13 0
-8 9 10 -11 1 2 -3 -4 13 0
-8 9 10 -11 1 -2 3 4 13 0
-8 9 10 -11 1 -2 3 -4 15 0
-8 9 10 -11 1 -2 -3 4 16 0
-8 9 10 -11 1 -2 -3 -4 20 0
-8 9 10 -11 -1 2 3 4 19 0
-8 9 10 -11 -1 2 3 -4 21 0
